WARNING: for repeatability, setting FPU to use double precision
============================[ Problem Statistics ]=============================
|                                                                             |
|  Number of variables:           100                                         |
|  Number of clauses:             449                                         |
|  Parse time:                   0.00 s                                       |
|  Eliminated clauses:           0.00 Mb                                      |
|  Simplification time:          0.00 s                                       |
|                                                                             |
============================[ Search Statistics ]==============================
| Conflicts |          ORIGINAL         |          LEARNT          | Progress |
|           |    Vars  Clauses Literals |    Limit  Clauses Lit/Cl |          |
===============================================================================
|       100 |      96      445     1367 |      163      100      7 |  0.010 % |
===============================================================================
restarts              : 2
conflicts             : 173            (63626 /sec)
decisions             : 224            (0.00 % random) (82383 /sec)
propagations          : 3750           (1379184 /sec)
conflict literals     : 1140           (15.87 % deleted)
Memory used           : 13.00 MB
CPU time              : 0.002719 s

SATISFIABLE
